NAME: st70-16-2
TYPE: TSP
COMMENT: min_cost = 361.36
DIMENSION: 16
EDGE_WEIGHT_TYPE: EUC_2D
NODE_COORD_SECTION
1 25 5
2 90 9
3 12 13
4 74 67
5 57 91
6 54 38
7 44 33
8 67 99
9 17 82
10 6 8
11 68 40
12 81 34
13 56 63
14 63 36
15 10 55
16 73 28
EOF
